*SPEF "IEEE 1481-1998"
*DESIGN "simple_design"
*DATE "2024-01-01 00:00:00"
*VENDOR "sta-choa synthetic"
*PROGRAM "sta-choa spef generator"
*VERSION "1.0"
*DESIGN_FLOW "NETLIST_TYPE_VERILOG"
*DIVIDER /
*DELIMITER :
*BUS_DELIMITER []

*T_UNIT 1 NS
*C_UNIT 1 FF
*R_UNIT 1 KOHM
*L_UNIT 1 UH

*NAME_MAP
*1 clk
*2 data_in[0]
*3 data_in[1]
*4 data_in[2]
*5 data_in[3]
*6 data_in[4]
*7 data_in[5]
*8 data_in[6]
*9 data_in[7]
*10 rst_n

*D_NET *1 2.5
*CONN
*I *1:CK I
*CAP
1 *1:CK 2.5
*RES
1 *1:CK *1:CK 0.02
*END

*D_NET *2 1.2
*CONN
*I *2:A I
*CAP
1 *2:A 1.2
*RES
1 *2:A *2:A 0.01
*END

*D_NET *3 1.2
*CONN
*I *3:A I
*CAP
1 *3:A 1.2
*RES
1 *3:A *3:A 0.01
*END

*D_NET *4 1.2
*CONN
*I *4:A I
*CAP
1 *4:A 1.2
*RES
1 *4:A *4:A 0.01
*END

*D_NET *5 1.2
*CONN
*I *5:A I
*CAP
1 *5:A 1.2
*RES
1 *5:A *5:A 0.01
*END
